Running HiGHS 1.2.0 [date: , git hash: ]
Copyright (c) 2022 ERGO-Code under MIT licence terms
Number of PL entries in BOUNDS section is 8
Number of BV entries in BOUNDS section is 14702
MIP  mp_h8_od_d0.84_4Hg0i_0 has 23729 rows; 14736 cols; 93541 nonzeros; 14727 integer variables
Presolving model
13535 rows, 11902 cols, 52994 nonzeros
12826 rows, 11267 cols, 50668 nonzeros

Solving MIP model with:
   12826 rows
   11267 cols (11241 binary, 19 integer, 7 implied int., 0 continuous)
   50668 nonzeros

( 0.3s) Starting symmetry detection
( 0.3s) No symmetry present

Solving root node LP relaxation

        Nodes      |    B&B Tree     |            Objective Bounds              |  Dynamic Constraints |       Work      
     Proc. InQueue |  Leaves   Expl. | BestBound       BestSol              Gap |   Cuts   InLp Confl. | LpIters     Time

         0       0         0   0.00%   -351.0301166    inf                  inf        0      0      2      8960     1.3s
 C       0       0         0   0.00%   -341.1151718    1955.732518      117.44%      620     64   1232     12025     4.5s
         0       0         0   0.00%   -338.5900851    1955.732518      117.31%     1059    118   1232     18109     9.5s
 L       0       0         0   0.00%   -338.5873963    -335.7957297       0.83%     1035    119   1232     18183    17.9s
 L       0       0         0   0.00%   -338.5845102    -337.705987        0.26%      995    121   1232     30050    21.3s

26.3% inactive integer columns, restarting
Model after restart has 8501 rows, 8011 cols (7996 bin., 8 int., 7 impl., 0 cont.), and 37686 nonzeros

         0       0         0   0.00%   -338.5715059    -337.705987        0.26%       76     65     27     38828    22.7s

5.0% inactive integer columns, restarting
Model after restart has 8013 rows, 7526 cols (7511 bin., 8 int., 7 impl., 0 cont.), and 35799 nonzeros

         0       0         0   0.00%   -338.4452535    -337.705987        0.22%       71     67      9     45745    26.5s

2.6% inactive integer columns, restarting
Model after restart has 7667 rows, 7205 cols (7191 bin., 7 int., 7 impl., 0 cont.), and 34441 nonzeros

         0       0         0   0.00%   -338.4353318    -337.705987        0.22%       67     67      5     50007    28.7s
         2       0         1  50.00%   -338.4349451    -337.705987        0.22%       98     67   1012    109311    44.0s

Solving report
  Status            Optimal
  Primal bound      -337.705987
  Dual bound        -337.705987
  Gap               0%
  Solution status   feasible
                    -337.705987 (objective)
                    0 (bound viol.)
                    5.15389952938e-11 (int. viol.)
                    0 (row viol.)
  Timing            45.26 (total)
                    0.86 (presolve)
                    0.00 (postsolve)
  Nodes             5
  LP iterations     113786 (total)
                    60583 (strong br.)
                    12832 (separation)
                    13827 (heuristics)
